# Objective value = 39
WA1n 0
WA1p 0
WA2n 1
WA2p 0
WB1n 0
WB1p 0
WB2n 1
WB2p 0
WC1n 1
WC1p 0
WD1n 1
WD1p 0
WE1n 1
WE1p 0
WF1n 0
WF1p 1
WG1n 4
WG1p 0
WG2n 1
WG2p 0
WH1n 5
WH1p 0
WH2n 1
WH2p 0
WI1n 5
WI1p 0
WI2n 1
WI2p 0
WJ1n 5
WJ1p 0
WJ2n 1
WJ2p 0
WT1n 4
WT1p 0
5 7
a 0
b 0
c 0
d 0
e 0
f 0
g 0
h 1
i 0
j 0
k 0
l 0
m 0
n 0
o 0
p 0
q 0
